Rodando pra 1h

Optimize a model with 64 rows, 60 columns and 499 nonzeros
Coefficient statistics:
  Matrix range    [1e+00, 1e+04]
  Objective range [1e+00, 1e+00]
  Bounds range    [1e+00, 1e+04]
  RHS range       [1e+00, 1e+04]
Found heuristic solution: objective 176
Presolve removed 24 rows and 4 columns
Presolve time: 0.02s
Presolved: 40 rows, 56 columns, 215 nonzeros
Variable types: 20 continuous, 36 integer (35 binary)

Root relaxation: objective 0.000000e+00, 29 iterations, 0.01 seconds

    Nodes    |    Current Node    |     Objective Bounds      |     Work
 Expl Unexpl |  Obj  Depth IntInf | Incumbent    BestBd   Gap | It/Node Time

     0     0    0.00000    0   15  176.00000    0.00000   100%     -    0s
H    0     0                     162.0000000    0.00000   100%     -    0s
     0     0    0.00000    0   20  162.00000    0.00000   100%     -    0s
     0     0    0.00000    0   20  162.00000    0.00000   100%     -    0s
     0     0    0.00000    0   20  162.00000    0.00000   100%     -    0s
     0     0    0.00000    0   12  162.00000    0.00000   100%     -    0s
H    0     0                     139.0000000    0.00000   100%     -    0s
     0     2    0.00000    0   12  139.00000    0.00000   100%     -    0s

Cutting planes:
  MIR: 1
  Flow cover: 4

Explored 91 nodes (562 simplex iterations) in 0.07 seconds
Thread count was 1 (of 4 available processors)

Optimal solution found (tolerance 1.00e-04)
Best objective 1.390000000000e+02, best bound 1.390000000000e+02, gap 0.0%
Tempo: 0.01 segundos

0 1 87 26 67 20 68 
1 3 10 36 39 58 16 
2 3 35 36 45 37 37 
2 4 0 3 71 24 66 
(132 101 222 139 187 )

